NAME          DCAP_2_3_3_300_SS65
ROWS
 N  OBJ
 L  CON1
 L  CON2
 L  CON3
 L  CON4
 L  CON5
 L  CON6
 L  CON7
 L  CON8
 L  CON9
 L  CON10
 L  CON11
 L  CON12
 E  CON13
 E  CON14
 E  CON15
 E  CON16
 E  CON17
 E  CON18
 E  CON19
 E  CON20
 E  CON21
COLUMNS
    x[1,1]    OBJ       6.180167      CON1      1.000000    
    x[1,1]    CON7      -1.000000     CON8      -1.000000   
    x[1,1]    CON9      -1.000000   
    x[1,2]    OBJ       6.563535      CON2      1.000000    
    x[1,2]    CON8      -1.000000     CON9      -1.000000   
    x[1,3]    OBJ       7.443064      CON3      1.000000    
    x[1,3]    CON9      -1.000000   
    x[2,1]    OBJ       6.732585      CON4      1.000000    
    x[2,1]    CON10     -1.000000     CON11     -1.000000   
    x[2,1]    CON12     -1.000000   
    x[2,2]    OBJ       5.039546      CON5      1.000000    
    x[2,2]    CON11     -1.000000     CON12     -1.000000   
    x[2,3]    OBJ       6.054841      CON6      1.000000    
    x[2,3]    CON12     -1.000000   
    MARKER    'MARKER'                'INTORG'
    u[1,1]    OBJ       48.076654     CON1      -1.000000   
    u[1,2]    OBJ       20.066487     CON2      -1.000000   
    u[1,3]    OBJ       32.230043     CON3      -1.000000   
    u[2,1]    OBJ       49.996186     CON4      -1.000000   
    u[2,2]    OBJ       49.466655     CON5      -1.000000   
    u[2,3]    OBJ       27.484319     CON6      -1.000000   
    y[1,1,1]  OBJ       6.187576      CON7      0.553140    
    y[1,1,1]  CON13     1.000000    
    y[1,1,2]  OBJ       9.476552      CON8      1.009039    
    y[1,1,2]  CON14     1.000000    
    y[1,1,3]  OBJ       6.778186      CON9      0.696011    
    y[1,1,3]  CON15     1.000000    
    y[1,2,1]  OBJ       5.447789      CON7      1.054427    
    y[1,2,1]  CON16     1.000000    
    y[1,2,2]  OBJ       5.863264      CON8      0.834611    
    y[1,2,2]  CON17     1.000000    
    y[1,2,3]  OBJ       5.522985      CON9      1.088438    
    y[1,2,3]  CON18     1.000000    
    y[1,3,1]  OBJ       7.742872      CON7      0.679993    
    y[1,3,1]  CON19     1.000000    
    y[1,3,2]  OBJ       5.890645      CON8      0.865684    
    y[1,3,2]  CON20     1.000000    
    y[1,3,3]  OBJ       9.016541      CON9      0.570602    
    y[1,3,3]  CON21     1.000000    
    y[2,1,1]  OBJ       5.317720      CON10     0.553140    
    y[2,1,1]  CON13     1.000000    
    y[2,1,2]  OBJ       6.183252      CON11     1.009039    
    y[2,1,2]  CON14     1.000000    
    y[2,1,3]  OBJ       8.474367      CON12     0.696011    
    y[2,1,3]  CON15     1.000000    
    y[2,2,1]  OBJ       8.492775      CON10     1.054427    
    y[2,2,1]  CON16     1.000000    
    y[2,2,2]  OBJ       9.255195      CON11     0.834611    
    y[2,2,2]  CON17     1.000000    
    y[2,2,3]  OBJ       5.362093      CON12     1.088438    
    y[2,2,3]  CON18     1.000000    
    y[2,3,1]  OBJ       7.359241      CON10     0.679993    
    y[2,3,1]  CON19     1.000000    
    y[2,3,2]  OBJ       5.310588      CON11     0.865684    
    y[2,3,2]  CON20     1.000000    
    y[2,3,3]  OBJ       7.151520      CON12     0.570602    
    y[2,3,3]  CON21     1.000000    
    z[1,1]    OBJ       930.794175    CON13     1.000000    
    z[1,2]    OBJ       584.780534    CON14     1.000000    
    z[1,3]    OBJ       877.944803    CON15     1.000000    
    z[2,1]    OBJ       902.685262    CON16     1.000000    
    z[2,2]    OBJ       959.003168    CON17     1.000000    
    z[2,3]    OBJ       966.427145    CON18     1.000000    
    z[3,1]    OBJ       680.495076    CON19     1.000000    
    z[3,2]    OBJ       682.294273    CON20     1.000000    
    z[3,3]    OBJ       736.809316    CON21     1.000000    
    MARKER    'MARKER'                 'INTEND'
RHS
    RHS       CON1      -0.000000     CON2      -0.000000   
    RHS       CON3      -0.000000     CON4      -0.000000   
    RHS       CON5      -0.000000     CON6      -0.000000   
    RHS       CON7      -0.000000     CON8      -0.000000   
    RHS       CON9      -0.000000     CON10     -0.000000   
    RHS       CON11     -0.000000     CON12     -0.000000   
    RHS       CON13     1.000000      CON14     1.000000    
    RHS       CON15     1.000000      CON16     1.000000    
    RHS       CON17     1.000000      CON18     1.000000    
    RHS       CON19     1.000000      CON20     1.000000    
    RHS       CON21     1.000000    
BOUNDS
 BV BOUND     u[1,1]  
 BV BOUND     u[1,2]  
 BV BOUND     u[1,3]  
 BV BOUND     u[2,1]  
 BV BOUND     u[2,2]  
 BV BOUND     u[2,3]  
 BV BOUND     y[1,1,1]
 BV BOUND     y[1,1,2]
 BV BOUND     y[1,1,3]
 BV BOUND     y[1,2,1]
 BV BOUND     y[1,2,2]
 BV BOUND     y[1,2,3]
 BV BOUND     y[1,3,1]
 BV BOUND     y[1,3,2]
 BV BOUND     y[1,3,3]
 BV BOUND     y[2,1,1]
 BV BOUND     y[2,1,2]
 BV BOUND     y[2,1,3]
 BV BOUND     y[2,2,1]
 BV BOUND     y[2,2,2]
 BV BOUND     y[2,2,3]
 BV BOUND     y[2,3,1]
 BV BOUND     y[2,3,2]
 BV BOUND     y[2,3,3]
 BV BOUND     z[1,1]  
 BV BOUND     z[1,2]  
 BV BOUND     z[1,3]  
 BV BOUND     z[2,1]  
 BV BOUND     z[2,2]  
 BV BOUND     z[2,3]  
 BV BOUND     z[3,1]  
 BV BOUND     z[3,2]  
 BV BOUND     z[3,3]  
ENDATA
